(set-info :smt-lib-version 2.6)
(set-logic QF_BV)
(set-info :source |
 Patrice Godefroid, SAGE (systematic dynamic test generation)
 For more information: http://research.microsoft.com/en-us/um/people/pg/public_psfiles/ndss2008.pdf
|)
(set-info :category "industrial")
(set-info :status unsat)
(declare-fun T1_2168 () (_ BitVec 8))
(declare-fun T1_1912 () (_ BitVec 8))
(declare-fun T1_1656 () (_ BitVec 8))
(declare-fun T1_1400 () (_ BitVec 8))
(declare-fun T1_1144 () (_ BitVec 8))
(declare-fun T1_888 () (_ BitVec 8))
(declare-fun T1_632 () (_ BitVec 8))
(declare-fun T1_376 () (_ BitVec 8))
(declare-fun T1_120 () (_ BitVec 8))
(declare-fun T1_2424 () (_ BitVec 8))
(declare-fun T1_2680 () (_ BitVec 8))
(declare-fun T1_2936 () (_ BitVec 8))
(assert (let ((?v_23 ((_ zero_extend 24) T1_1912)) (?v_19 ((_ zero_extend 24) T1_1656)) (?v_15 ((_ zero_extend 24) T1_1400)) (?v_10 ((_ zero_extend 24) T1_1144)) (?v_7 ((_ zero_extend 24) T1_888)) (?v_4 ((_ zero_extend 24) T1_632)) (?v_2 ((_ zero_extend 24) T1_376)) (?v_0 ((_ zero_extend 24) T1_120))) (let ((?v_3 (bvadd ?v_0 (_ bv122 32)))) (let ((?v_5 (bvadd ?v_3 ?v_2))) (let ((?v_6 (bvadd ?v_5 (_ bv1 32)))) (let ((?v_8 (bvadd ?v_6 ?v_4))) (let ((?v_9 (bvadd ?v_8 (_ bv1 32)))) (let ((?v_11 (bvadd ?v_9 ?v_7))) (let ((?v_12 (bvadd ?v_11 (_ bv1 32)))) (let ((?v_13 (bvadd ?v_12 ?v_10))) (let ((?v_18 (bvadd ?v_13 (_ bv1 32)))) (let ((?v_17 (bvadd ?v_18 ?v_15))) (let ((?v_22 (bvadd ?v_17 (_ bv1 32)))) (let ((?v_21 (bvadd ?v_22 ?v_19))) (let ((?v_26 (bvadd ?v_21 (_ bv1 32)))) (let ((?v_25 (bvadd ?v_26 ?v_23))) (let ((?v_27 (bvadd (bvadd ?v_25 (_ bv1 32)) ((_ zero_extend 24) T1_2168)))) (let ((?v_24 (bvadd (bvadd ?v_27 (_ bv1 32)) ((_ zero_extend 24) T1_2424)))) (let ((?v_20 (bvadd (bvadd ?v_24 (_ bv1 32)) ((_ zero_extend 24) T1_2680)))) (let ((?v_16 (bvadd (bvadd ?v_20 (_ bv1 32)) ((_ zero_extend 24) T1_2936)))) (let ((?v_14 (bvsub (_ bv2957 32) (bvadd ?v_16 (_ bv1 32)))) (?v_1 (bvadd ?v_0 (_ bv121 32)))) (and true (bvule T1_2168 (_ bv0 8)) (bvult (_ bv1 32) (bvsub (_ bv2957 32) ?v_1)) (bvsle (bvsub ?v_0 (_ bv255 32)) (_ bv0 32)) (bvslt (_ bv0 32) (bvsub ?v_0 (_ bv254 32))) (bvule ?v_1 (_ bv2957 32)) (bvule (_ bv0 32) ?v_1) (bvsle (bvsub ?v_2 (_ bv255 32)) (_ bv0 32)) (bvslt (_ bv0 32) (bvsub ?v_2 (_ bv254 32))) (bvslt (_ bv0 32) ?v_0) (not (= ?v_0 (_ bv0 32))) (bvult ?v_0 (_ bv2836 32)) (bvsle (_ bv0 32) ?v_0) (bvult (_ bv0 8) T1_120) (not (= T1_120 (_ bv0 8))) (bvult (_ bv1 32) (bvsub (_ bv2957 32) ?v_5)) (bvslt (_ bv0 32) ?v_2) (not (= ?v_2 (_ bv0 32))) (bvult ?v_2 (bvsub (_ bv2957 32) ?v_3)) (bvsle (_ bv0 32) ?v_2) (bvult (_ bv0 8) T1_376) (not (= T1_376 (_ bv0 8))) (bvsle (bvsub ?v_4 (_ bv255 32)) (_ bv0 32)) (bvslt (_ bv0 32) (bvsub ?v_4 (_ bv254 32))) (bvule ?v_5 (_ bv2957 32)) (bvule (_ bv0 32) ?v_5) (bvult (_ bv1 32) (bvsub (_ bv2957 32) ?v_8)) (bvslt (_ bv0 32) ?v_4) (not (= ?v_4 (_ bv0 32))) (bvult ?v_4 (bvsub (_ bv2957 32) ?v_6)) (bvsle (_ bv0 32) ?v_4) (bvult (_ bv0 8) T1_632) (not (= T1_632 (_ bv0 8))) (bvsle (bvsub ?v_7 (_ bv255 32)) (_ bv0 32)) (bvslt (_ bv0 32) (bvsub ?v_7 (_ bv254 32))) (bvule ?v_8 (_ bv2957 32)) (bvule (_ bv0 32) ?v_8) (bvult (_ bv1 32) (bvsub (_ bv2957 32) ?v_11)) (bvslt (_ bv0 32) ?v_7) (not (= ?v_7 (_ bv0 32))) (bvult ?v_7 (bvsub (_ bv2957 32) ?v_9)) (bvsle (_ bv0 32) ?v_7) (bvult (_ bv0 8) T1_888) (not (= T1_888 (_ bv0 8))) (bvsle (bvsub ?v_10 (_ bv255 32)) (_ bv0 32)) (bvslt (_ bv0 32) (bvsub ?v_10 (_ bv254 32))) (bvule ?v_11 (_ bv2957 32)) (bvule (_ bv0 32) ?v_11) (bvult (_ bv1 32) (bvsub (_ bv2957 32) ?v_13)) (bvslt (_ bv0 32) ?v_10) (not (= ?v_10 (_ bv0 32))) (bvult ?v_10 (bvsub (_ bv2957 32) ?v_12)) (bvsle (_ bv0 32) ?v_10) (bvult (_ bv0 8) T1_1144) (not (= T1_1144 (_ bv0 8))) (= ?v_14 (_ bv1 32)) (bvule ?v_14 (_ bv1 32)) (bvsle (bvsub ?v_15 (_ bv255 32)) (_ bv0 32)) (bvslt (_ bv0 32) (bvsub ?v_15 (_ bv254 32))) (bvule ?v_13 (_ bv2957 32)) (bvule (_ bv0 32) ?v_13) (bvult (_ bv1 32) (bvsub (_ bv2957 32) ?v_16)) (bvult (_ bv1 32) (bvsub (_ bv2957 32) ?v_17)) (bvslt (_ bv0 32) ?v_15) (not (= ?v_15 (_ bv0 32))) (bvult ?v_15 (bvsub (_ bv2957 32) ?v_18)) (bvsle (_ bv0 32) ?v_15) (bvult (_ bv0 8) T1_1400) (not (= T1_1400 (_ bv0 8))) (not (= T1_2936 (_ bv0 8))) (bvule ?v_16 (_ bv2957 32)) (bvule (_ bv0 32) ?v_16) (bvsle (bvsub ?v_19 (_ bv255 32)) (_ bv0 32)) (bvslt (_ bv0 32) (bvsub ?v_19 (_ bv254 32))) (bvule ?v_17 (_ bv2957 32)) (bvule (_ bv0 32) ?v_17) (bvult (_ bv1 32) (bvsub (_ bv2957 32) ?v_20)) (bvult (_ bv1 32) (bvsub (_ bv2957 32) ?v_21)) (bvslt (_ bv0 32) ?v_19) (not (= ?v_19 (_ bv0 32))) (bvult ?v_19 (bvsub (_ bv2957 32) ?v_22)) (bvsle (_ bv0 32) ?v_19) (bvult (_ bv0 8) T1_1656) (not (= T1_1656 (_ bv0 8))) (not (= T1_2680 (_ bv0 8))) (bvule ?v_20 (_ bv2957 32)) (bvule (_ bv0 32) ?v_20) (bvsle (bvsub ?v_23 (_ bv255 32)) (_ bv0 32)) (bvslt (_ bv0 32) (bvsub ?v_23 (_ bv254 32))) (bvule ?v_21 (_ bv2957 32)) (bvule (_ bv0 32) ?v_21) (bvult (_ bv1 32) (bvsub (_ bv2957 32) ?v_24)) (bvult (_ bv1 32) (bvsub (_ bv2957 32) ?v_25)) (bvslt (_ bv0 32) ?v_23) (not (= ?v_23 (_ bv0 32))) (bvult ?v_23 (bvsub (_ bv2957 32) ?v_26)) (bvsle (_ bv0 32) ?v_23) (bvult (_ bv0 8) T1_1912) (not (= T1_1912 (_ bv0 8))) (not (= T1_2424 (_ bv0 8))) (bvule ?v_24 (_ bv2957 32)) (bvule (_ bv0 32) ?v_24) (bvule ?v_25 (_ bv2957 32)) (bvule (_ bv0 32) ?v_25) (bvult (_ bv1 32) (bvsub (_ bv2957 32) ?v_27)) (bvule ?v_27 (_ bv2957 32)) (bvule (_ bv0 32) ?v_27) (not (= T1_2168 (_ bv0 8)))))))))))))))))))))))))
(check-sat)
(exit)
